k = 24;
b = 12;
AtomicConstraints =  [|
2, 5|
	2, 6|
	2, 7|
	2, 8|
	3, 5|
	3, 6|
	3, 8|
	4, 6|
	4, 8|
	15, 2|
	15, 3|
	15, 4|
	15, 5|
	15, 6|
	15, 7|
	15, 8|
	13, 3|
	13, 4|
	13, 5|
	13, 6|
	13, 8|
	7, 5|
	7, 6|
	8, 6|
	9, 2|
	9, 3|
	9, 4|
	9, 15|
	9, 13|
	9, 5|
	9, 6|
	9, 7|
	9, 8|
	9, 11|
	9, 23|
	9, 17|
	9, 19|
	9, 24|
	9, 16|
	10, 4|
	10, 6|
	10, 8|
	10, 17|
	10, 16|
	22, 2|
	22, 3|
	22, 4|
	22, 15|
	22, 13|
	22, 5|
	22, 6|
	22, 7|
	22, 8|
	22, 9|
	22, 10|
	22, 11|
	22, 23|
	22, 17|
	22, 19|
	22, 24|
	22, 16|
	14, 3|
	14, 4|
	14, 13|
	14, 5|
	14, 6|
	14, 8|
	14, 10|
	14, 23|
	14, 17|
	14, 24|
	14, 16|
	20, 4|
	20, 6|
	20, 8|
	20, 10|
	20, 17|
	20, 16|
	18, 1|
	18, 2|
	18, 3|
	18, 4|
	18, 15|
	18, 13|
	18, 5|
	18, 6|
	18, 7|
	18, 8|
	11, 2|
	11, 3|
	11, 4|
	11, 15|
	11, 13|
	11, 5|
	11, 6|
	11, 7|
	11, 8|
	23, 3|
	23, 4|
	23, 13|
	23, 5|
	23, 6|
	23, 8|
	17, 4|
	17, 6|
	17, 8|
	12, 1|
	12, 2|
	12, 3|
	12, 4|
	12, 15|
	12, 13|
	12, 5|
	12, 6|
	12, 7|
	12, 8|
	12, 18|
	12, 11|
	12, 23|
	19, 2|
	19, 3|
	19, 4|
	19, 15|
	19, 13|
	19, 5|
	19, 6|
	19, 7|
	19, 8|
	19, 11|
	19, 23|
	19, 17|
	24, 3|
	24, 4|
	24, 13|
	24, 5|
	24, 6|
	24, 8|
	24, 23|
	24, 17|
	16, 4|
	16, 6|
	16, 8|
	16, 17|
	21, 1|
	21, 2|
	21, 3|
	21, 4|
	21, 15|
	21, 13|
	21, 5|
	21, 6|
	21, 7|
	21, 8|
	21, 18|
	21, 11|
	21, 23|
	21, 17|
	21, 12|
	21, 19|
	21, 24|];
DisjunctiveConstraints =  [|9, 2, 9, 14|
	9, 3, 9, 15|
	10, 6, 10, 18|
	10, 8, 10, 20|
	22, 2, 22, 14|
	22, 3, 22, 15|
	22, 11, 22, 23|
	14, 3, 14, 15|
	14, 1, 14, 13|
	14, 5, 14, 17|
	14, 11, 14, 23|
	20, 6, 20, 18|
	18, 1, 18, 13|
	11, 7, 11, 19|
	23, 1, 23, 13|
	23, 5, 23, 17|
	17, 4, 17, 16|
	17, 6, 17, 18|
	17, 8, 17, 20|
	12, 1, 12, 13|
	24, 3, 24, 15|
	24, 1, 24, 13|
	24, 5, 24, 17|
	16, 6, 16, 18|
	16, 8, 16, 20|
	21, 1, 21, 13|];
SoftAtomicConstraints =  [|
2, 3|
3, 4|
1, 5|
5, 6|
7, 8|
21, 9|
9, 10|
18, 11|
15, 13|
22, 14|
24, 16|
23, 17|
12, 19|
14, 20|
11, 23|
19, 24|];
DirectSuccessors =  [];
